10J3M/DAT/10J3MNLL-1.dat
10 3
13.7792 13.7792
20.265 20.265
25.2088 25.2088
20.1127 20.1127
25.8785 25.8785
24.6611 24.6611
27.8358 27.8358
37.4363 37.4363
22.1112 22.1112
34.6031 34.6031
83.9639