10J3M/SOL/10J3MNLL-1.sol
solution status: optimal solution found
objective value:                              76.2791
x#1#1                               0.300645172122855 	(obj:0)
x#1#2                               0.699354827877145 	(obj:0)
x#2#3                                               1 	(obj:0)
x#3#2                                               1 	(obj:0)
x#4#3                                               1 	(obj:0)
x#5#1                                               1 	(obj:0)
x#6#1                                               1 	(obj:0)
x#7#1                                               1 	(obj:0)
x#8#1                                               1 	(obj:0)
x#9#2                               0.431397733874506 	(obj:0)
x#9#3                               0.568602266125494 	(obj:0)
x#10#2                                              1 	(obj:0)
z                                             76.2791 	(obj:1)
